4 
5  47 
6  02 17 32 47 59 
7  06 14 22 28 36 43 51 58 
8  06 13 21 28 36 43 51 58 
9  06 13 21 28 36 43 51 58 
10  06 13 21 28 36 43 51 58 
11  06 13 21 28 36 43 51 58 
12  06 13 21 28 36 43 51 58 
13  06 13 21 28 37 45 52 59 
14  07 14 22 29 37 44 52 59 
15  07 14 22 29 37 44 51 59 
16  06 14 21 29 36 44 51 59 
17  06 14 21 29 36 44 51 59 
18  06 14 21 29 36 44 51 59 
19  06 14 21 29 35 42 49 58 
20  06 14 21 28 36 43 50 58 
21  05 18 33 48 
22  03 18 33 48 
23  01 16 28 39 
0 
1 
